(set-logic QF_AUFBV)
(declare-fun v1 () (_ BitVec 9))
(declare-fun bvlambda_1_ () (_ BitVec 1))
(declare-fun bvlambda_2_ () (_ BitVec 3))
(declare-fun a78 () (Array (_ BitVec 4) (_ BitVec 3)))
(declare-fun a79 () (Array (_ BitVec 1) (_ BitVec 16)))
(declare-fun a80 () (Array (_ BitVec 12) (_ BitVec 12)))
(assert
(let (($e1 (_ bv0 1)))
(let (($e2 (_ bv1574 11)))
(let (($e3 (_ bv190 12)))
(let (($e4 (_ bv14 9)))
(let (($e5 (_ bv0 4)))
(let (($e6 (_ bv0 2)))
(let (($e7 (_ bv104 7)))
(let (($e8 (_ bv0 6)))
(let (($e9 (_ bv22 5)))
(let (($e10 (_ bv35208 16)))
(let (($e11 (_ bv6 6)))
(let (($e12 (_ bv178 12)))
(let (($e13 (_ bv0 11)))
(let (($e14 (_ bv4094 12)))
(let (($e15 (_ bv0 10)))
(let (($e16 (_ bv0 5)))
(let (($e17 (_ bv0 9)))
(let (($e18 (_ bv61630 16)))
(let (($e19 (_ bv6 16)))
(let (($e20 (_ bv4080 12)))
(let (($e21 (_ bv34 12)))
(let (($e22 (_ bv4092 12)))
(let (($e23 (_ bv48 12)))
(let (($e24 (_ bv26 16)))
(let (($e25 (_ bv34 16)))
(let (($e26 (_ bv3622 12)))
(let (($e27 (_ bv3872 12)))
(let (($e28 (_ bv468 12)))
(let (($e29 (_ bv2 12)))
(let (($e30 (_ bv4032 12)))
(let (($e31 (_ bv0 7)))
(let (($e32 (_ bv65532 16)))
(let (($e33 (_ bv0 12)))
(let (($e34 (_ bv0 16)))
(let (($e35 (_ bv4062 12)))
(let (($e36 (_ bv0 8)))
(let (($e37 (_ bv32 9)))
(let (($e38 (_ bv4086 12)))
(let (($e39 (_ bv4088 12)))
(let (($e40 (_ bv508 9)))
(let (($e41 (_ bv126 7)))
(let (($e42 (_ bv0 3)))
(let (($e43 (_ bv65312 16)))
(let (($e44 (_ bv0 15)))
(let (($e45 (_ bv488 9)))
(let (($e46 (_ bv0 14)))
(let (($e47 (_ bv74 11)))
(let (($e48 (_ bv2046 11)))
(let (($e49 (_ bv510 9)))
(let (($e50 (_ bv0 13)))
(let (($e51 (_ bv32 11)))
(let (($e52 (_ bv288 9)))
(let (($e53 (_ bv240 8)))
(let (($e54 (_ bv32764 15)))
(let (($e55 (_ bv6 15)))
(let (($e56 (_ bv6 12)))
(let (($e57 (_ bv65062 16)))
(let (($e58 (_ bv2440 15)))
(let (($e59 (_ bv32 16)))
(let (($e60 (_ bv6 8)))
(let (($e61 (_ bv1994 11)))
(let (($e62 (_ bv32766 15)))
(let (($e63 (_ bv178 11)))
(let (($e64 (_ bv32666 15)))
(let (($e65 (_ bv2 11)))
(let (($e66 (_ bv26 6)))
(let (($e67 (_ bv1574 12)))
(let (($e68 (_ bv2 15)))
(let (($e69 (_ bv65512 16)))
(let (($e70 (_ bv6 11)))
(let (($e71 (_ bv34 15)))
(let (($e72 (_ bv40 6)))
(let (($e73 (_ bv12 9)))
(let (($e74 (_ bv4386 16)))
(let (($e81 (concat $e1 bvlambda_1_)))
(let (($e82 (concat $e81 bvlambda_2_)))
(let (($e83 (bvurem $e82 (bvnot $e9))))
(let (($e84 ((_ extract 3 0) $e83)))
(let (($e85 (select a80 $e33)))
(let (($e86 (select a80 $e29)))
(let (($e87 (ite (= $e86 $e85) #b1 #b0)))
(let (($e88 (concat $e42 $e87)))
(let (($e89 (ite (bvult $e88 $e84) #b1 #b0)))
(let (($e90 ((_ extract 4 4) $e83)))
(let (($e91 (bvand (bvnot $e90) $e89)))
(let (($e92 (select a80 $e28)))
(let (($e93 (bvmul (bvnot $e20) $e92)))
(let (($e94 (bvand $e93 (bvnot $e38))))
(let (($e95 (ite (bvult $e94 $e14) #b1 #b0)))
(let (($e96 (ite (= (bvnot $e95) $e91) #b1 #b0)))
(let (($e97 (select a78 (bvnot $e5))))
(let (($e98 (concat $e36 $e97)))
(let (($e99 (select a80 (bvnot $e23))))
(let (($e100 ((_ extract 10 0) $e99)))
(let (($e101 (ite (bvult $e100 $e98) #b1 #b0)))
(let (($e102 ((_ extract 11 11) $e99)))
(let (($e103 (bvand (bvnot $e102) (bvnot $e101))))
(let (($e104 (select a79 $e1)))
(let (($e105 ((_ extract 14 14) $e104)))
(let (($e106 (bvudiv v1 $e4)))
(let (($e107 ((_ extract 7 7) $e106)))
(let (($e108 (store a79 $e107 (bvnot $e24))))
(let (($e109 (store $e108 $e1 $e25)))
(let (($e110 (store $e109 $e105 $e25)))
(let (($e111 (select $e110 (bvnot $e1))))
(let (($e112 ((_ extract 14 0) $e111)))
(let (($e113 (ite (= $e44 $e112) #b1 #b0)))
(let (($e114 ((_ extract 15 15) $e111)))
(let (($e115 (bvand (bvnot $e114) (bvnot $e113))))
(let (($e116 (bvand $e115 $e103)))
(let (($e117 (bvand (bvnot $e115) (bvnot $e103))))
(let (($e118 (bvand (bvnot $e117) (bvnot $e116))))
(let (($e119 (bvand $e118 $e96)))
(let (($e120 (concat $e16 bvlambda_1_)))
(let (($e121 (concat $e120 bvlambda_2_)))
(let (($e122 (bvmul $e106 $e121)))
(let (($e123 (select a78 $e5)))
(let (($e124 (ite (= $e123 $e42) #b1 #b0)))
(let (($e125 (concat (bvnot $e46) (bvnot $e124))))
(let (($e126 (concat $e46 (bvnot $e124))))
(let (($e127 (ite (= #b1 $e124) $e126 $e125)))
(let (($e128 ((_ extract 8 0) $e127)))
(let (($e129 (ite (= $e128 $e122) #b1 #b0)))
(let (($e130 ((_ extract 14 9) $e127)))
(let (($e131 (ite (= $e8 $e130) #b1 #b0)))
(let (($e132 (bvand $e131 $e129)))
(let (($e133 (concat (bvnot $e5) (bvnot $e124))))
(let (($e134 (concat $e5 (bvnot $e124))))
(let (($e135 (ite (= #b1 $e124) $e134 $e133)))
(let (($e136 ((_ extract 4 4) $e135)))
(let (($e137 (ite (= $e136 $e90) #b1 #b0)))
(let (($e138 ((_ extract 3 0) $e135)))
(let (($e139 (ite (bvult $e84 $e138) #b1 #b0)))
(let (($e140 (bvand $e139 $e137)))
(let (($e141 (bvand (bvnot $e136) $e90)))
(let (($e142 (bvand (bvnot $e141) (bvnot $e140))))
(let (($e143 (bvand (bvnot $e142) (bvnot $e132))))
(let (($e144 (select a80 (bvnot $e26))))
(let (($e145 (store a80 (bvnot $e20) $e21)))
(let (($e146 (select $e145 $e144)))
(let (($e147 (bvand $e146 (bvnot $e39))))
(let (($e148 (bvand (bvnot $e146) $e39)))
(let (($e149 (bvand (bvnot $e148) (bvnot $e147))))
(let (($e150 (concat $e42 $e149)))
(let (($e151 (ite (bvult $e68 $e150) #b1 #b0)))
(let (($e152 (bvand (bvnot $e151) $e143)))
(let (($e153 (bvand $e152 (bvnot $e119))))
(let (($e154 (concat (bvnot $e42) (bvnot $e122))))
(let (($e155 (concat $e42 (bvnot $e122))))
(let (($e156 ((_ extract 8 8) $e122)))
(let (($e157 (ite (= #b1 $e156) $e155 $e154)))
(let (($e158 ((_ extract 11 11) $e157)))
(let (($e159 (bvadd (bvnot $e14) (bvnot $e144))))
(let (($e160 ((_ extract 11 11) $e159)))
(let (($e161 (ite (= $e160 $e158) #b1 #b0)))
(let (($e162 ((_ extract 10 0) $e159)))
(let (($e163 ((_ extract 10 0) $e157)))
(let (($e164 (ite (bvult $e163 $e162) #b1 #b0)))
(let (($e165 (bvand $e164 $e161)))
(let (($e166 (bvand (bvnot $e160) $e158)))
(let (($e167 (bvand (bvnot $e166) (bvnot $e165))))
(let (($e168 (ite (= $e17 $e122) #b1 #b0)))
(let (($e169 (bvand (bvnot $e156) (bvnot $e168))))
(let (($e170 (concat $e46 $e169)))
(let (($e171 ((_ extract 3 3) $e106)))
(let (($e172 (store a79 $e1 (bvnot $e19))))
(let (($e173 (store $e172 $e107 (bvnot $e24))))
(let (($e174 (select $e173 $e171)))
(let (($e175 ((_ extract 14 0) $e174)))
(let (($e176 (ite (bvult $e175 $e170) #b1 #b0)))
(let (($e177 ((_ extract 15 15) $e174)))
(let (($e178 (bvand (bvnot $e177) (bvnot $e176))))
(let (($e179 (ite (= $e178 $e167) #b1 #b0)))
(let (($e180 (bvand (bvnot $e179) $e153)))
(let (($e181 (concat $e8 (bvnot $e122))))
(let (($e182 (ite (bvult $e181 (bvnot $e58)) #b1 #b0)))
(let (($e183 (ite (= $e40 $e122) #b1 #b0)))
(let (($e184 (concat (bvnot $e13) (bvnot $e183))))
(let (($e185 (concat $e13 (bvnot $e183))))
(let (($e186 (ite (= #b1 $e183) $e185 $e184)))
(let (($e187 (ite (bvult $e186 $e159) #b1 #b0)))
(let (($e188 (bvand $e187 $e182)))
(let (($e189 (select a80 $e12)))
(let (($e190 ((_ extract 11 0) $e104)))
(let (($e191 (store $e145 (bvnot $e22) (bvnot $e23))))
(let (($e192 (store $e191 (bvnot $e30) $e190)))
(let (($e193 (select $e192 $e189)))
(let (($e194 ((_ extract 10 0) $e193)))
(let (($e195 (ite (= (bvnot $e13) $e194) #b1 #b0)))
(let (($e196 ((_ extract 11 11) $e193)))
(let (($e197 (bvand $e196 (bvnot $e195))))
(let (($e198 (bvand $e197 (bvnot $e187))))
(let (($e199 (bvand (bvnot $e198) (bvnot $e188))))
(let (($e200 (select $e173 $e1)))
(let (($e201 (ite (= $e200 $e34) #b1 #b0)))
(let (($e202 (concat $e5 $e146)))
(let (($e203 (bvudiv $e202 (bvnot $e18))))
(let (($e204 (ite (= $e34 $e203) #b1 #b0)))
(let (($e205 (ite (= $e204 (bvnot $e201)) #b1 #b0)))
(let (($e206 (ite (= $e205 $e199) #b1 #b0)))
(let (($e207 ((_ extract 3 0) $e122)))
(let (($e208 (concat $e5 $e99)))
(let (($e209 (bvlshr $e208  ((_ zero_extend 12) (bvnot $e207)))))
(let (($e210 ((_ extract 10 0) $e209)))
(let (($e211 ((_ extract 11 4) $e155)))
(let (($e212 (ite (= $e36 $e211) #b1 #b0)))
(let (($e213 (ite (= #b1 $e212) $e210 $e13)))
(let (($e214 (concat $e15 $e87)))
(let (($e215 (ite (bvult $e214 $e213) #b1 #b0)))
(let (($e216 ((_ extract 11 11) $e209)))
(let (($e217 (bvand $e212 $e216)))
(let (($e218 (bvand (bvnot $e217) $e215)))
(let (($e219 (bvand (bvnot $e218) (bvnot $e206))))
(let (($e220 (concat bvlambda_1_ bvlambda_2_)))
(let (($e221 (ite (bvult (bvnot $e14) $e189) #b1 #b0)))
(let (($e222 (concat $e42 $e221)))
(let (($e223 (concat (bvnot $e42) $e221)))
(let (($e224 (ite (= #b1 $e221) $e223 $e222)))
(let (($e225 (ite (bvult $e224 $e220) #b1 #b0)))
(let (($e226 (concat (bvnot $e36) (bvnot $e183))))
(let (($e227 (concat $e36 (bvnot $e183))))
(let (($e228 (ite (= #b1 $e183) $e227 $e226)))
(let (($e229 (ite (= v1 $e228) #b1 #b0)))
(let (($e230 (bvand $e229 $e225)))
(let (($e231 (bvand (bvnot $e229) (bvnot $e225))))
(let (($e232 (bvand (bvnot $e231) (bvnot $e230))))
(let (($e233 (concat $e15 (bvnot $e183))))
(let (($e234 (ite (bvult $e2 $e233) #b1 #b0)))
(let (($e235 (bvand $e234 (bvnot $e232))))
(let (($e236 (bvand $e218 (bvnot $e235))))
(let (($e237 (bvand (bvnot $e236) (bvnot $e219))))
(let (($e238 (concat $e31 $e122)))
(let (($e239 (concat (bvnot $e31) $e122)))
(let (($e240 (ite (= #b1 $e156) $e239 $e238)))
(let (($e241 (ite (= $e34 $e240) #b1 #b0)))
(let (($e242 (select a80 $e21)))
(let (($e243 (concat $e5 $e242)))
(let (($e244 (concat (bvnot $e5) $e242)))
(let (($e245 ((_ extract 11 11) $e242)))
(let (($e246 (ite (= #b1 $e245) $e244 $e243)))
(let (($e247 ((_ extract 15 15) $e246)))
(let (($e248 (bvand (bvnot $e247) (bvnot $e241))))
(let (($e249 (concat $e50 $e123)))
(let (($e250 (ite (bvult $e249 $e200) #b1 #b0)))
(let (($e251 ((_ extract 7 0) $e106)))
(let (($e252 (ite (bvult $e251 (bvnot $e53)) #b1 #b0)))
(let (($e253 ((_ extract 8 8) $e106)))
(let (($e254 (bvand (bvnot $e253) (bvnot $e252))))
(let (($e255 (bvand $e254 (bvnot $e250))))
(let (($e256 (bvudiv (bvnot $e14) $e93)))
(let (($e257 (ite (bvult $e93 $e256) #b1 #b0)))
(let (($e258 (bvand (bvnot $e257) $e255)))
(let (($e259 (concat (bvnot $e5) (bvnot $e92))))
(let (($e260 (concat $e5 (bvnot $e92))))
(let (($e261 ((_ extract 11 11) $e92)))
(let (($e262 (ite (= #b1 $e261) $e260 $e259)))
(let (($e263 ((_ extract 15 15) $e262)))
(let (($e264 (concat $e5 $e144)))
(let (($e265 (bvand $e25 $e264)))
(let (($e266 (bvand (bvnot $e25) (bvnot $e264))))
(let (($e267 (bvand (bvnot $e266) (bvnot $e265))))
(let (($e268 ((_ extract 15 15) $e267)))
(let (($e269 (bvand $e268 $e263)))
(let (($e270 (bvand (bvnot $e268) (bvnot $e263))))
(let (($e271 (bvand (bvnot $e270) (bvnot $e269))))
(let (($e272 ((_ extract 14 0) $e262)))
(let (($e273 ((_ extract 14 0) $e267)))
(let (($e274 (ite (bvult (bvnot $e273) $e272) #b1 #b0)))
(let (($e275 (bvand $e274 $e271)))
(let (($e276 (bvand (bvnot $e270) (bvnot $e275))))
(let (($e277 (bvand (bvnot $e276) $e258)))
(let (($e278 (bvand $e277 (bvnot $e248))))
(let (($e279 (bvand (bvnot $e278) (bvnot $e237))))
(let (($e280 (concat $e33 bvlambda_1_)))
(let (($e281 (concat $e280 bvlambda_2_)))
(let (($e282 (concat (bvnot $e33) bvlambda_1_)))
(let (($e283 (concat $e282 bvlambda_2_)))
(let (($e284 (ite (= #b1 bvlambda_1_) $e283 $e281)))
(let (($e285 (ite (= $e174 $e284) #b1 #b0)))
(let (($e286 (ite (= $e34 $e262) #b1 #b0)))
(let (($e287 (bvand $e286 $e285)))
(let (($e288 (concat $e31 bvlambda_1_)))
(let (($e289 (concat $e288 bvlambda_2_)))
(let (($e290 (concat (bvnot $e31) bvlambda_1_)))
(let (($e291 (concat $e290 bvlambda_2_)))
(let (($e292 (ite (= #b1 bvlambda_1_) $e291 $e289)))
(let (($e293 (ite (bvult $e292 (bvnot $e2)) #b1 #b0)))
(let (($e294 (ite (= (bvnot $e86) $e33) #b1 #b0)))
(let (($e295 (concat $e36 $e294)))
(let (($e296 (concat (bvnot $e36) $e294)))
(let (($e297 (ite (= #b1 $e294) $e296 $e295)))
(let (($e298 (bvand v1 (bvnot $e45))))
(let (($e299 (ite (= $e298 $e297) #b1 #b0)))
(let (($e300 (bvand $e299 $e293)))
(let (($e301 ((_ extract 15 15) $e200)))
(let (($e302 (ite (bvult (bvnot $e48) $e100) #b1 #b0)))
(let (($e303 (bvand (bvnot $e102) $e302)))
(let (($e304 (ite (= $e303 $e301) #b1 #b0)))
(let (($e305 (bvand $e304 (bvnot $e300))))
(let (($e306 (ite (= $e2 $e292) #b1 #b0)))
(let (($e307 (bvand (bvnot $e115) (bvnot $e306))))
(let (($e308 (ite (= $e92 (bvnot $e33)) #b1 #b0)))
(let (($e309 (bvand $e308 $e307)))
(let (($e310 ((_ extract 10 0) $e146)))
(let (($e311 (ite (= $e13 $e310) #b1 #b0)))
(let (($e312 ((_ extract 11 11) $e146)))
(let (($e313 (bvand (bvnot $e312) (bvnot $e311))))
(let (($e314 (bvand $e313 (bvnot $e309))))
(let (($e315 (bvand (bvnot $e314) $e300)))
(let (($e316 (bvand (bvnot $e315) (bvnot $e305))))
(let (($e317 (bvadd (bvnot $e14) (bvnot $e242))))
(let (($e318 (ite (= #b1 $e245) $e317 $e242)))
(let (($e319 (ite (= $e33 $e318) #b1 #b0)))
(let (($e320 (ite (= #b1 $e319) (bvnot $e33) $e33)))
(let (($e321 (bvadd (bvnot $e14) (bvnot $e320))))
(let (($e322 (ite (= #b1 $e245) $e321 $e320)))
(let (($e323 ((_ extract 10 0) $e322)))
(let (($e324 (concat $e8 $e83)))
(let (($e325 (ite (bvult $e324 $e323) #b1 #b0)))
(let (($e326 ((_ extract 11 11) $e322)))
(let (($e327 (bvand (bvnot $e326) $e325)))
(let (($e328 (ite (= $e86 $e33) #b1 #b0)))
(let (($e329 (bvand (bvnot $e328) $e327)))
(let (($e330 (ite (= $e329 $e316) #b1 #b0)))
(let (($e331 (ite (bvult $e264 (bvnot $e10)) #b1 #b0)))
(let (($e332 (bvand (bvnot $e331) $e330)))
(let (($e333 (concat (bvnot $e13) (bvnot $e124))))
(let (($e334 (concat $e13 (bvnot $e124))))
(let (($e335 (ite (= #b1 $e124) $e334 $e333)))
(let (($e336 (select a80 (bvnot $e27))))
(let (($e337 (ite (= $e336 $e335) #b1 #b0)))
(let (($e338 (bvand $e337 $e332)))
(let (($e339 (bvand $e338 $e287)))
(let (($e340 (bvmul v1 (bvnot $e17))))
(let (($e341 (bvand $e340 $e37)))
(let (($e342 (bvand (bvnot $e340) (bvnot $e37))))
(let (($e343 (bvand (bvnot $e342) (bvnot $e341))))
(let (($e344 (concat (bvnot $e8) (bvnot $e343))))
(let (($e345 (concat $e8 (bvnot $e343))))
(let (($e346 ((_ extract 8 8) $e343)))
(let (($e347 (ite (= #b1 $e346) $e345 $e344)))
(let (($e348 ((_ extract 13 0) $e347)))
(let (($e349 (concat $e16 $e122)))
(let (($e350 (ite (bvult $e349 $e348) #b1 #b0)))
(let (($e351 ((_ extract 14 14) $e347)))
(let (($e352 (bvand (bvnot $e351) $e350)))
(let (($e353 (ite (= $e200 (bvnot $e43)) #b1 #b0)))
(let (($e354 (concat $e15 (bvnot $e353))))
(let (($e355 ((_ extract 10 0) $e86)))
(let (($e356 (ite (bvult $e355 $e354) #b1 #b0)))
(let (($e357 ((_ extract 11 11) $e86)))
(let (($e358 (bvand (bvnot $e357) (bvnot $e356))))
(let (($e359 (ite (= $e358 $e352) #b1 #b0)))
(let (($e360 (ite (bvult $e61 (bvnot $e355)) #b1 #b0)))
(let (($e361 (bvand (bvnot $e357) (bvnot $e360))))
(let (($e362 (ite (= (bvnot $e144) $e56) #b1 #b0)))
(let (($e363 (bvand (bvnot $e362) (bvnot $e361))))
(let (($e364 (bvadd (bvnot $e14) (bvnot $e193))))
(let (($e365 (ite (= #b1 $e196) $e364 $e193)))
(let (($e366 (bvurem (bvnot $e35) $e365)))
(let (($e367 (bvadd (bvnot $e14) (bvnot $e366))))
(let (($e368 (ite (= #b1 $e196) $e367 $e33)))
(let (($e369 (bvadd $e193 $e367)))
(let (($e370 (ite (= $e33 $e366) #b1 #b0)))
(let (($e371 (bvand (bvnot $e196) (bvnot $e370))))
(let (($e372 (ite (= #b1 $e371) $e369 $e33)))
(let (($e373 (bvand (bvnot $e372) (bvnot $e368))))
(let (($e374 (ite (bvult $e14 $e373) #b1 #b0)))
(let (($e375 (bvand (bvnot $e374) (bvnot $e363))))
(let (($e376 (bvand $e374 $e363)))
(let (($e377 (bvand (bvnot $e376) (bvnot $e375))))
(let (($e378 ((_ extract 10 0) $e256)))
(let (($e379 (ite (bvult $e65 $e378) #b1 #b0)))
(let (($e380 ((_ extract 11 11) $e256)))
(let (($e381 (bvand (bvnot $e380) $e379)))
(let (($e382 (bvand $e381 (bvnot $e377))))
(let (($e383 (bvand $e382 (bvnot $e359))))
(let (($e384 (bvand $e383 (bvnot $e339))))
(let (($e385 (bvand (bvnot $e384) $e278)))
(let (($e386 (bvand (bvnot $e385) (bvnot $e279))))
(let (($e387 (bvand (bvnot $e386) $e180)))
(let (($e388 ((_ extract 10 0) $e336)))
(let (($e389 (ite (bvult $e324 $e388) #b1 #b0)))
(let (($e390 ((_ extract 11 11) $e336)))
(let (($e391 (bvand (bvnot $e390) $e389)))
(let (($e392 (bvand (bvnot $e204) $e391)))
(let (($e393 ((_ extract 6 0) $e144)))
(let (($e394 ((_ extract 8 2) $e340)))
(let (($e395 (ite (= $e394 $e393) #b1 #b0)))
(let (($e396 ((_ extract 8 7) $e144)))
(let (($e397 ((_ extract 1 0) $e340)))
(let (($e398 (ite (= $e397 $e396) #b1 #b0)))
(let (($e399 ((_ extract 11 9) $e144)))
(let (($e400 (ite (= $e42 $e399) #b1 #b0)))
(let (($e401 (bvand $e400 $e398)))
(let (($e402 (bvand $e401 $e395)))
(let (($e403 (concat $e13 (bvnot $e353))))
(let (($e404 (ite (bvult $e242 $e403) #b1 #b0)))
(let (($e405 (ite (= $e404 $e402) #b1 #b0)))
(let (($e406 (bvand $e204 (bvnot $e405))))
(let (($e407 (bvand (bvnot $e406) (bvnot $e392))))
(let (($e408 (bvand (bvnot $e286) $e183)))
(let (($e409 (ite (= $e99 $e33) #b1 #b0)))
(let (($e410 (bvand (bvnot $e409) $e286)))
(let (($e411 (bvand (bvnot $e410) (bvnot $e408))))
(let (($e412 (bvand (bvnot $e411) (bvnot $e407))))
(let (($e413 ((_ extract 11 0) $e209)))
(let (($e414 (ite (= (bvnot $e20) $e413) #b1 #b0)))
(let (($e415 (bvand $e212 $e414)))
(let (($e416 (bvand (bvnot $e415) $e411)))
(let (($e417 (bvand (bvnot $e416) (bvnot $e412))))
(let (($e418 (bvudiv v1 (bvnot $e122))))
(let (($e419 (concat (bvnot $e36) (bvnot $e124))))
(let (($e420 (concat $e36 (bvnot $e124))))
(let (($e421 (ite (= #b1 $e124) $e420 $e419)))
(let (($e422 (ite (= $e421 $e418) #b1 #b0)))
(let (($e423 (concat (bvnot $e44) (bvnot $e124))))
(let (($e424 (concat $e44 (bvnot $e124))))
(let (($e425 (ite (= #b1 $e124) $e424 $e423)))
(let (($e426 ((_ extract 15 15) $e425)))
(let (($e427 ((_ extract 15 15) $e203)))
(let (($e428 (ite (= $e427 $e426) #b1 #b0)))
(let (($e429 ((_ extract 14 0) $e425)))
(let (($e430 ((_ extract 14 0) $e203)))
(let (($e431 (ite (bvult $e430 $e429) #b1 #b0)))
(let (($e432 (bvand $e431 $e428)))
(let (($e433 (bvand $e427 (bvnot $e426))))
(let (($e434 (bvand (bvnot $e433) (bvnot $e432))))
(let (($e435 (bvand $e434 (bvnot $e422))))
(let (($e436 (ite (= $e241 $e435) #b1 #b0)))
(let (($e437 (bvand (bvnot $e436) (bvnot $e417))))
(let (($e438 (concat $e6 $e122)))
(let (($e439 (ite (bvult $e355 $e438) #b1 #b0)))
(let (($e440 (bvand (bvnot $e357) (bvnot $e439))))
(let (($e441 (ite (bvult (bvnot $e49) $e298) #b1 #b0)))
(let (($e442 (bvand $e441 $e440)))
(let (($e443 (bvand (bvnot $e441) (bvnot $e440))))
(let (($e444 (bvand (bvnot $e443) (bvnot $e442))))
(let (($e445 (concat $e31 $e83)))
(let (($e446 (concat (bvnot $e31) $e83)))
(let (($e447 (ite (= #b1 $e90) $e446 $e445)))
(let (($e448 (ite (= $e86 $e447) #b1 #b0)))
(let (($e449 (ite (= $e448 $e444) #b1 #b0)))
(let (($e450 ((_ extract 1 0) $e97)))
(let (($e451 (concat $e5 $e450)))
(let (($e452 (concat (bvnot $e5) $e450)))
(let (($e453 ((_ extract 1 1) $e97)))
(let (($e454 (ite (= #b1 $e453) $e452 $e451)))
(let (($e455 (ite (= $e454 (bvnot $e66)) #b1 #b0)))
(let (($e456 ((_ extract 2 2) $e97)))
(let (($e457 (bvand (bvnot $e456) $e455)))
(let (($e458 (ite (= $e457 $e449) #b1 #b0)))
(let (($e459 (ite (= $e458 (bvnot $e437)) #b1 #b0)))
(let (($e460 (bvand (bvnot $e459) $e386)))
(let (($e461 (bvand (bvnot $e460) (bvnot $e387))))
(let (($e462 (concat $e8 $e122)))
(let (($e463 (concat $e42 $e322)))
(let (($e464 (concat (bvnot $e42) $e322)))
(let (($e465 (ite (= #b1 $e326) $e464 $e463)))
(let (($e466 (ite (bvult $e465 $e462) #b1 #b0)))
(let (($e467 ((_ extract 14 0) $e104)))
(let (($e468 (ite (bvult $e467 (bvnot $e64)) #b1 #b0)))
(let (($e469 ((_ extract 15 15) $e104)))
(let (($e470 (bvand (bvnot $e469) (bvnot $e468))))
(let (($e471 (ite (= $e12 $e92) #b1 #b0)))
(let (($e472 (bvand (bvnot $e471) (bvnot $e470))))
(let (($e473 (bvand $e471 $e470)))
(let (($e474 (bvand (bvnot $e473) (bvnot $e472))))
(let (($e475 (bvand (bvnot $e374) (bvnot $e474))))
(let (($e476 (bvand (bvnot $e475) $e466)))
(let (($e477 (concat $e6 $e397)))
(let (($e478 (concat $e477 $e394)))
(let (($e479 (ite (bvult $e478 $e310) #b1 #b0)))
(let (($e480 (bvand (bvnot $e312) $e479)))
(let (($e481 (concat $e17 $e97)))
(let (($e482 (ite (bvult $e481 (bvnot $e86)) #b1 #b0)))
(let (($e483 (bvand (bvnot $e482) $e480)))
(let (($e484 (bvand $e483 $e476)))
(let (($e485 (select $e173 (bvnot $e1))))
(let (($e486 ((_ extract 14 0) $e485)))
(let (($e487 (ite (= (bvnot $e44) $e486) #b1 #b0)))
(let (($e488 ((_ extract 15 15) $e485)))
(let (($e489 (bvand $e488 (bvnot $e487))))
(let (($e490 (bvand (bvnot $e489) $e484)))
(let (($e491 ((_ extract 7 0) $e418)))
(let (($e492 (ite (bvult (bvnot $e60) $e491) #b1 #b0)))
(let (($e493 ((_ extract 8 8) $e418)))
(let (($e494 (bvand $e493 (bvnot $e492))))
(let (($e495 (ite (bvult (bvnot $e373) $e86) #b1 #b0)))
(let (($e496 (bvand (bvnot $e495) $e494)))
(let (($e497 (concat $e50 $e97)))
(let (($e498 (concat (bvnot $e50) $e97)))
(let (($e499 (ite (= #b1 $e456) $e498 $e497)))
(let (($e500 (ite (bvult (bvnot $e10) $e499) #b1 #b0)))
(let (($e501 (bvand (bvnot $e500) (bvnot $e496))))
(let (($e502 (bvand $e489 $e501)))
(let (($e503 (bvand (bvnot $e502) (bvnot $e490))))
(let (($e504 (concat $e397 $e394)))
(let (($e505 (ite (bvult (bvnot $e52) $e504) #b1 #b0)))
(let (($e506 ((_ extract 3 0) $e193)))
(let (($e507 (concat $e5 $e93)))
(let (($e508 (bvshl $e507  ((_ zero_extend 12) $e506))))
(let (($e509 ((_ extract 10 0) $e508)))
(let (($e510 ((_ extract 11 4) $e193)))
(let (($e511 (ite (= $e510 $e36) #b1 #b0)))
(let (($e512 (ite (= #b1 $e511) $e509 $e13)))
(let (($e513 (ite (bvult $e47 $e512) #b1 #b0)))
(let (($e514 ((_ extract 11 11) $e508)))
(let (($e515 (bvand $e511 $e514)))
(let (($e516 (bvand (bvnot $e515) $e513)))
(let (($e517 (bvand (bvnot $e516) $e505)))
(let (($e518 (ite (= $e485 $e34) #b1 #b0)))
(let (($e519 (bvand $e518 (bvnot $e517))))
(let (($e520 (bvand $e519 $e503)))
(let (($e521 (ite (= $e520 $e461) #b1 #b0)))
(let (($e522 (concat $e13 $e169)))
(let (($e523 (ite (bvult $e146 $e522) #b1 #b0)))
(let (($e524 (ite (= (bvnot $e18) $e203) #b1 #b0)))
(let (($e525 (ite (bvult (bvnot $e39) $e93) #b1 #b0)))
(let (($e526 (bvand $e525 (bvnot $e524))))
(let (($e527 (bvand (bvnot $e526) (bvnot $e523))))
(let (($e528 (concat (bvnot $e6) $e397)))
(let (($e529 ((_ extract 1 1) $e340)))
(let (($e530 (ite (= #b1 $e529) $e528 $e477)))
(let (($e531 (concat $e530 $e394)))
(let (($e532 (ite (bvult $e2 $e531) #b1 #b0)))
(let (($e533 (ite (= $e532 (bvnot $e527)) #b1 #b0)))
(let (($e534 (concat (bvnot $e5) (bvnot $e183))))
(let (($e535 (concat $e5 (bvnot $e183))))
(let (($e536 (ite (= #b1 $e183) $e535 $e534)))
(let (($e537 (ite (bvult (bvnot $e9) $e536) #b1 #b0)))
(let (($e538 (ite (bvult $e71 $e175) #b1 #b0)))
(let (($e539 (bvand (bvnot $e177) $e538)))
(let (($e540 (concat $e42 $e159)))
(let (($e541 (concat $e31 $e340)))
(let (($e542 (concat (bvnot $e31) $e340)))
(let (($e543 ((_ extract 8 8) $e340)))
(let (($e544 (ite (= #b1 $e543) $e542 $e541)))
(let (($e545 ((_ extract 3 0) $e544)))
(let (($e546 (bvlshr $e485  ((_ zero_extend 12) $e545))))
(let (($e547 ((_ extract 14 0) $e546)))
(let (($e548 ((_ extract 15 4) $e544)))
(let (($e549 (ite (= $e33 $e548) #b1 #b0)))
(let (($e550 (ite (= #b1 $e549) $e547 $e44)))
(let (($e551 (ite (bvult $e550 $e540) #b1 #b0)))
(let (($e552 ((_ extract 15 15) $e546)))
(let (($e553 (bvand $e549 $e552)))
(let (($e554 (bvand (bvnot $e553) (bvnot $e551))))
(let (($e555 (bvand (bvnot $e554) $e539)))
(let (($e556 ((_ extract 0 0) $e343)))
(let (($e557 (ite (= $e326 $e556) #b1 #b0)))
(let (($e558 ((_ extract 8 1) $e343)))
(let (($e559 (ite (= $e36 (bvnot $e558)) #b1 #b0)))
(let (($e560 (bvand $e559 $e557)))
(let (($e561 (bvand $e554 (bvnot $e560))))
(let (($e562 (bvand (bvnot $e561) (bvnot $e555))))
(let (($e563 (bvand (bvnot $e562) $e537)))
(let (($e564 (ite (bvult $e59 (bvnot $e267)) #b1 #b0)))
(let (($e565 (bvand (bvnot $e564) $e562)))
(let (($e566 (bvand (bvnot $e565) (bvnot $e563))))
(let (($e567 ((_ extract 10 0) $e373)))
(let (($e568 (ite (bvult (bvnot $e567) $e63) #b1 #b0)))
(let (($e569 ((_ extract 11 11) $e373)))
(let (($e570 (bvand $e569 (bvnot $e568))))
(let (($e571 (ite (= (bvnot $e570) $e566) #b1 #b0)))
(let (($e572 ((_ extract 11 0) $e508)))
(let (($e573 (ite (= $e33 $e572) #b1 #b0)))
(let (($e574 (bvand $e511 (bvnot $e573))))
(let (($e575 (ite (= $e574 $e571) #b1 #b0)))
(let (($e576 (concat $e42 $e294)))
(let (($e577 (concat (bvnot $e42) $e294)))
(let (($e578 (ite (= #b1 $e294) $e577 $e576)))
(let (($e579 (ite (bvult $e578 $e220) #b1 #b0)))
(let (($e580 (bvand $e579 $e575)))
(let (($e581 (bvand $e580 (bvnot $e533))))
(let (($e582 (concat $e42 $e340)))
(let (($e583 (ite (bvult $e85 $e582) #b1 #b0)))
(let (($e584 (ite (bvult $e73 v1) #b1 #b0)))
(let (($e585 (bvand $e584 (bvnot $e583))))
(let (($e586 (concat (bvnot $e13) (bvnot $e353))))
(let (($e587 (ite (= #b1 $e353) $e403 $e586)))
(let (($e588 ((_ extract 10 0) $e587)))
(let (($e589 (ite (bvult (bvnot $e48) $e588) #b1 #b0)))
(let (($e590 ((_ extract 11 11) $e587)))
(let (($e591 (bvand (bvnot $e590) $e589)))
(let (($e592 (bvand (bvnot $e591) $e585)))
(let (($e593 (ite (= $e592 $e581) #b1 #b0)))
(let (($e594 (concat (bvnot $e44) (bvnot $e306))))
(let (($e595 (concat $e44 (bvnot $e306))))
(let (($e596 (ite (= #b1 $e306) $e595 $e594)))
(let (($e597 (ite (bvult $e596 (bvnot $e32)) #b1 #b0)))
(let (($e598 (concat $e44 $e221)))
(let (($e599 (concat (bvnot $e44) $e221)))
(let (($e600 (ite (= #b1 $e221) $e599 $e598)))
(let (($e601 (ite (= $e34 $e600) #b1 #b0)))
(let (($e602 (ite (= $e601 $e597) #b1 #b0)))
(let (($e603 (concat $e13 $e115)))
(let (($e604 (ite (bvult (bvnot $e3) $e603) #b1 #b0)))
(let (($e605 (ite (= $e174 $e74) #b1 #b0)))
(let (($e606 (bvand (bvnot $e605) (bvnot $e604))))
(let (($e607 (bvand $e605 $e604)))
(let (($e608 (bvand (bvnot $e607) (bvnot $e606))))
(let (($e609 (bvand $e608 (bvnot $e602))))
(let (($e610 (ite (bvult $e256 $e29) #b1 #b0)))
(let (($e611 (bvand $e610 $e609)))
(let (($e612 (ite (= #b1 $e212) $e413 $e33)))
(let (($e613 (concat (bvnot $e13) $e115)))
(let (($e614 (ite (= #b1 $e115) $e613 $e603)))
(let (($e615 (ite (bvult $e614 $e612) #b1 #b0)))
(let (($e616 (concat $e46 (bvnot $e353))))
(let (($e617 (ite (bvult $e616 $e430) #b1 #b0)))
(let (($e618 (bvand (bvnot $e427) $e617)))
(let (($e619 (bvand (bvnot $e618) (bvnot $e615))))
(let (($e620 (bvand $e618 $e615)))
(let (($e621 (bvand (bvnot $e620) (bvnot $e619))))
(let (($e622 (concat (bvnot $e8) (bvnot $e124))))
(let (($e623 (concat $e8 (bvnot $e124))))
(let (($e624 (ite (= #b1 $e124) $e623 $e622)))
(let (($e625 ((_ extract 5 0) $e624)))
(let (($e626 (ite (bvult $e625 (bvnot $e72)) #b1 #b0)))
(let (($e627 ((_ extract 6 6) $e624)))
(let (($e628 (bvand (bvnot $e627) (bvnot $e626))))
(let (($e629 ((_ extract 1 1) $e104)))
(let (($e630 (ite (= #b1 $e629) $e111 $e260)))
(let (($e631 (ite (= $e34 $e630) #b1 #b0)))
(let (($e632 (bvand $e631 $e628)))
(let (($e633 (ite (= $e632 $e621) #b1 #b0)))
(let (($e634 (ite (= #b1 $e549) $e546 $e34)))
(let (($e635 (ite (bvult $e634 (bvnot $e69)) #b1 #b0)))
(let (($e636 (ite (= $e635 $e633) #b1 #b0)))
(let (($e637 (bvand (bvnot $e636) $e611)))
(let (($e638 (concat (bvnot $e13) $e169)))
(let (($e639 (ite (= #b1 $e169) $e638 $e522)))
(let (($e640 (ite (bvult $e639 (bvnot $e92)) #b1 #b0)))
(let (($e641 (concat (bvnot $e42) (bvnot $e343))))
(let (($e642 (concat $e42 (bvnot $e343))))
(let (($e643 (ite (= #b1 $e346) $e642 $e641)))
(let (($e644 ((_ extract 11 11) $e643)))
(let (($e645 ((_ extract 11 11) $e144)))
(let (($e646 (ite (= $e645 $e644) #b1 #b0)))
(let (($e647 ((_ extract 10 0) $e144)))
(let (($e648 ((_ extract 10 0) $e643)))
(let (($e649 (ite (bvult $e648 $e647) #b1 #b0)))
(let (($e650 (bvand $e649 $e646)))
(let (($e651 (bvand (bvnot $e645) $e644)))
(let (($e652 (bvand (bvnot $e651) (bvnot $e650))))
(let (($e653 (bvand $e652 (bvnot $e640))))
(let (($e654 (ite (bvult $e63 $e162) #b1 #b0)))
(let (($e655 (bvand (bvnot $e160) $e654)))
(let (($e656 (concat $e8 $e87)))
(let (($e657 (ite (bvult (bvnot $e7) $e656) #b1 #b0)))
(let (($e658 (ite (= $e657 $e655) #b1 #b0)))
(let (($e659 (ite (= $e658 $e653) #b1 #b0)))
(let (($e660 (bvand (bvnot $e659) (bvnot $e637))))
(let (($e661 (bvand (bvnot $e169) $e660)))
(let (($e662 ((_ extract 15 15) $e240)))
(let (($e663 (ite (= (bvnot $e662) $e661) #b1 #b0)))
(let (($e664 (ite (bvult $e467 (bvnot $e55)) #b1 #b0)))
(let (($e665 (bvand $e469 $e664)))
(let (($e666 (concat $e36 (bvnot $e326))))
(let (($e667 (ite (bvult $e504 $e666) #b1 #b0)))
(let (($e668 (bvand $e667 (bvnot $e665))))
(let (($e669 (bvand (bvnot $e668) $e663)))
(let (($e670 (concat $e5 $e83)))
(let (($e671 (ite (bvult $e504 $e670) #b1 #b0)))
(let (($e672 (select $e108 (bvnot $e1))))
(let (($e673 (ite (bvult $e672 (bvnot $e24)) #b1 #b0)))
(let (($e674 (ite (= $e485 (bvnot $e57)) #b1 #b0)))
(let (($e675 (bvand (bvnot $e674) (bvnot $e673))))
(let (($e676 (ite (= $e111 $e34) #b1 #b0)))
(let (($e677 (bvand $e673 (bvnot $e676))))
(let (($e678 (bvand (bvnot $e677) (bvnot $e675))))
(let (($e679 ((_ extract 10 0) $e149)))
(let (($e680 (ite (bvult $e679 (bvnot $e70)) #b1 #b0)))
(let (($e681 ((_ extract 11 11) $e149)))
(let (($e682 (bvand $e681 $e680)))
(let (($e683 (bvand (bvnot $e682) (bvnot $e678))))
(let (($e684 (bvand (bvnot $e683) $e671)))
(let (($e685 (ite (bvult $e550 (bvnot $e54)) #b1 #b0)))
(let (($e686 (bvand (bvnot $e553) (bvnot $e685))))
(let (($e687 (bvand (bvnot $e686) $e683)))
(let (($e688 (bvand (bvnot $e687) (bvnot $e684))))
(let (($e689 (bvand (bvnot $e688) (bvnot $e669))))
(let (($e690 (ite (bvult (bvnot $e94) $e67) #b1 #b0)))
(let (($e691 (bvand (bvnot $e690) $e688)))
(let (($e692 (bvand (bvnot $e691) (bvnot $e689))))
(let (($e693 (ite (= $e692 $e593) #b1 #b0)))
(let (($e694 (concat $e42 bvlambda_1_)))
(let (($e695 (concat $e694 bvlambda_2_)))
(let (($e696 (concat (bvnot $e42) bvlambda_1_)))
(let (($e697 (concat $e696 bvlambda_2_)))
(let (($e698 (ite (= #b1 bvlambda_1_) $e697 $e695)))
(let (($e699 (ite (= (bvnot $e41) $e698) #b1 #b0)))
(let (($e700 (ite (= (bvnot $e44) $e430) #b1 #b0)))
(let (($e701 (bvand $e427 (bvnot $e700))))
(let (($e702 (ite (= $e701 $e699) #b1 #b0)))
(let (($e703 (concat $e42 $e418)))
(let (($e704 (ite (bvult $e242 $e703) #b1 #b0)))
(let (($e705 (bvand (bvnot $e704) $e702)))
(let (($e706 (concat $e16 $e169)))
(let (($e707 (concat (bvnot $e16) $e169)))
(let (($e708 (ite (= #b1 $e169) $e707 $e706)))
(let (($e709 (ite (bvult (bvnot $e11) $e708) #b1 #b0)))
(let (($e710 (concat $e46 (bvnot $e709))))
(let (($e711 (ite (bvult $e710 (bvnot $e54)) #b1 #b0)))
(let (($e712 (concat $e8 $e97)))
(let (($e713 (ite (bvult $e712 $e504) #b1 #b0)))
(let (($e714 (ite (bvult $e355 $e51) #b1 #b0)))
(let (($e715 (bvand (bvnot $e357) (bvnot $e714))))
(let (($e716 (bvand $e715 (bvnot $e713))))
(let (($e717 (concat $e5 $e572)))
(let (($e718 (ite (= #b1 $e511) $e717 $e34)))
(let (($e719 (ite (bvult $e718 $e200) #b1 #b0)))
(let (($e720 (ite (= $e719 (bvnot $e716)) #b1 #b0)))
(let (($e721 (ite (= (bvnot $e720) $e711) #b1 #b0)))
(let (($e722 (bvand (bvnot $e721) (bvnot $e705))))
(let (($e723 (ite (= (bvnot $e16) $e83) #b1 #b0)))
(let (($e724 (bvand $e90 (bvnot $e723))))
(let (($e725 (concat $e6 $e86)))
(let (($e726 (ite (bvult $e725 $e349) #b1 #b0)))
(let (($e727 (concat (bvnot $e17) (bvnot $e353))))
(let (($e728 (concat $e17 (bvnot $e353))))
(let (($e729 (ite (= #b1 $e353) $e728 $e727)))
(let (($e730 (ite (= $e15 $e729) #b1 #b0)))
(let (($e731 (bvand $e730 (bvnot $e726))))
(let (($e732 (ite (= $e44 $e175) #b1 #b0)))
(let (($e733 (bvand (bvnot $e177) (bvnot $e732))))
(let (($e734 (ite (= $e733 (bvnot $e731)) #b1 #b0)))
(let (($e735 (concat $e44 $e87)))
(let (($e736 (concat (bvnot $e44) $e87)))
(let (($e737 (ite (= #b1 $e87) $e736 $e735)))
(let (($e738 (ite (= $e104 $e737) #b1 #b0)))
(let (($e739 (ite (= $e738 $e734) #b1 #b0)))
(let (($e740 (concat $e16 $e123)))
(let (($e741 ((_ extract 7 0) $e122)))
(let (($e742 (ite (bvult (bvnot $e741) $e740) #b1 #b0)))
(let (($e743 (bvand $e156 (bvnot $e742))))
(let (($e744 (ite (= $e743 $e739) #b1 #b0)))
(let (($e745 ((_ extract 10 0) $e189)))
(let (($e746 (ite (bvult (bvnot $e51) $e745) #b1 #b0)))
(let (($e747 ((_ extract 11 11) $e189)))
(let (($e748 (bvand $e747 (bvnot $e746))))
(let (($e749 (ite (= $e196 $e645) #b1 #b0)))
(let (($e750 (ite (bvult $e194 $e647) #b1 #b0)))
(let (($e751 (bvand $e750 $e749)))
(let (($e752 (bvand $e196 (bvnot $e645))))
(let (($e753 (bvand (bvnot $e752) (bvnot $e751))))
(let (($e754 (bvand $e753 (bvnot $e748))))
(let (($e755 (bvand (bvnot $e754) (bvnot $e744))))
(let (($e756 (bvand (bvnot $e755) $e724)))
(let (($e757 (ite (bvult (bvnot $e62) $e462) #b1 #b0)))
(let (($e758 (concat $e6 $e106)))
(let (($e759 (concat (bvnot $e6) $e106)))
(let (($e760 (ite (= #b1 $e253) $e759 $e758)))
(let (($e761 (ite (bvult $e760 $e2) #b1 #b0)))
(let (($e762 (ite (= $e761 $e757) #b1 #b0)))
(let (($e763 (ite (= $e111 $e737) #b1 #b0)))
(let (($e764 (bvand (bvnot $e763) $e762)))
(let (($e765 (ite (= $e99 (bvnot $e33)) #b1 #b0)))
(let (($e766 (bvand (bvnot $e765) (bvnot $e764))))
(let (($e767 (bvand $e766 $e755)))
(let (($e768 (bvand (bvnot $e767) (bvnot $e756))))
(let (($e769 (ite (bvult (bvnot $e57) $e174) #b1 #b0)))
(let (($e770 (bvand $e769 (bvnot $e768))))
(let (($e771 (bvand $e721 $e770)))
(let (($e772 (bvand (bvnot $e771) (bvnot $e722))))
(let (($e773 (ite (= $e17 (bvnot $e122)) #b1 #b0)))
(let (($e774 (ite (= $e42 bvlambda_2_) #b1 #b0)))
(let (($e775 (bvand (bvnot bvlambda_1_) $e774)))
(let (($e776 (ite (bvult $e93 (bvnot $e30)) #b1 #b0)))
(let (($e777 (ite (bvult $e111 $e672) #b1 #b0)))
(let (($e778 (ite (= (bvnot $e86) $e93) #b1 #b0)))
(let (($e779 (ite (bvult $e144 $e322) #b1 #b0)))
(let (($e780 (bvand (bvnot $e779) (bvnot $e778))))
(let (($e781 (ite (= $e33 $e242) #b1 #b0)))
(let (($e782 (ite (= (bvnot $e33) $e242) #b1 #b0)))
(let (($e783 (ite (= $e33 $e93) #b1 #b0)))
(let (($e784 (ite (= $e174 $e34) #b1 #b0)))
(let (($e785 (ite (= $e174 (bvnot $e34)) #b1 #b0)))
(let (($e786 (ite (= $e193 $e33) #b1 #b0)))
(let (($e787 (ite (= $e193 (bvnot $e33)) #b1 #b0)))
(let (($e788 (bvand (bvnot $e787) (bvnot $e786))))
(let (($e789 (bvand $e788 (bvnot $e785))))
(let (($e790 (bvand $e789 (bvnot $e784))))
(let (($e791 (bvand $e790 (bvnot $e783))))
(let (($e792 (bvand $e791 (bvnot $e782))))
(let (($e793 (bvand $e792 (bvnot $e781))))
(let (($e794 (bvand $e793 (bvnot $e780))))
(let (($e795 (bvand $e794 (bvnot $e777))))
(let (($e796 (bvand $e795 (bvnot $e776))))
(let (($e797 (bvand $e796 (bvnot $e775))))
(let (($e798 (bvand $e797 (bvnot $e773))))
(let (($e799 (bvand $e798 (bvnot $e772))))
(let (($e800 (bvand $e799 $e693)))
(let (($e801 (bvand $e800 $e521)))
 (not (= $e801 #b0))))))))))))))))))))))))))))))))))))))))))))))))))))))))))))))))))))))))))))))))))))))))))))))))))))))))))))))))))))))))))))))))))))))))))))))))))))))))))))))))))))))))))))))))))))))))))))))))))))))))))))))))))))))))))))))))))))))))))))))))))))))))))))))))))))))))))))))))))))))))))))))))))))))))))))))))))))))))))))))))))))))))))))))))))))))))))))))))))))))))))))))))))))))))))))))))))))))))))))))))))))))))))))))))))))))))))))))))))))))))))))))))))))))))))))))))))))))))))))))))))))))))))))))))))))))))))))))))))))))))))))))))))))))))))))))))))))))))))))))))))))))))))))))))))))))))))))))))))))))))))))))))))))))))))))))))))))))))))))))))))))))))))))))))))))))))))))))))))))))))))))))))))))))))))))))))))))))))))))))))))))))))))))))))))))))))))))))))))))))))))))))))))))))))))))))))))))))))))))))
(check-sat)
(exit)
